Minimize
 [ 4 C0 ^2 + 12 C1 ^2 + 4 C2 ^2 + 10 C3 ^2 + 4 C4 ^2 + 14 C5 ^2 + 12 C6 ^2
   + 2 C7 ^2 + 10 C8 ^2 + 20 C9 ^2 + 14 C10 ^2 + 6 C11 ^2 + 16 C12 ^2
   + 6 C13 ^2 + 2 C14 ^2 + 6 C15 ^2 + 10 C16 ^2 + 4 C17 ^2 + 2 C18 ^2
   + 6 C19 ^2 + 8 C20 ^2 + 6 C21 ^2 + 12 C22 ^2 + 8 C23 ^2 + 8 C24 ^2
   + 2 C25 ^2 + 10 C26 ^2 + 20 C27 ^2 + 4 C28 ^2 + 2 C29 ^2 + 20 C30 ^2
   + 20 C31 ^2 + 4 C32 ^2 + 12 C33 ^2 + 12 C34 ^2 + 2 C35 ^2 + 6 C36 ^2
   + 2 C37 ^2 + 18 C38 ^2 + 10 C39 ^2 + 18 C40 ^2 + 2 C41 ^2 + 20 C42 ^2
   + 16 C43 ^2 + 4 C44 ^2 + 4 C45 ^2 + 10 C46 ^2 + 8 C47 ^2 + 8 C48 ^2
   + 14 C49 ^2 ] / 2 
Subject To
 R0: C0 + C50 = 1
 R1: C1 - C50 + C51 = 1
 R2: C2 - C51 + C52 = 1
 R3: C3 - C52 + C53 = 1
 R4: C4 - C53 + C54 = 1
 R5: C5 - C54 + C55 = 1
 R6: C6 - C55 + C56 = 1
 R7: C7 - C56 + C57 = 1
 R8: C8 - C57 + C58 = 1
 R9: C9 - C58 + C59 = 1
 R10: C10 - C59 + C60 = 1
 R11: C11 - C60 + C61 = 1
 R12: C12 - C61 + C62 = 1
 R13: C13 - C62 + C63 = 1
 R14: C14 - C63 + C64 = 1
 R15: C15 - C64 + C65 = 1
 R16: C16 - C65 + C66 = 1
 R17: C17 - C66 + C67 = 1
 R18: C18 - C67 + C68 = 1
 R19: C19 - C68 + C69 = 1
 R20: C20 - C69 + C70 = 1
 R21: C21 - C70 + C71 = 1
 R22: C22 - C71 + C72 = 1
 R23: C23 - C72 + C73 = 1
 R24: C24 - C73 + C74 = 1
 R25: C25 - C74 + C75 = 1
 R26: C26 - C75 + C76 = 1
 R27: C27 - C76 + C77 = 1
 R28: C28 - C77 + C78 = 1
 R29: C29 - C78 + C79 = 1
 R30: C30 - C79 + C80 = 1
 R31: C31 - C80 + C81 = 1
 R32: C32 - C81 + C82 = 1
 R33: C33 - C82 + C83 = 1
 R34: C34 - C83 + C84 = 1
 R35: C35 - C84 + C85 = 1
 R36: C36 - C85 + C86 = 1
 R37: C37 - C86 + C87 = 1
 R38: C38 - C87 + C88 = 1
 R39: C39 - C88 + C89 = 1
 R40: C40 - C89 + C90 = 1
 R41: C41 - C90 + C91 = 1
 R42: C42 - C91 + C92 = 1
 R43: C43 - C92 + C93 = 1
 R44: C44 - C93 + C94 = 1
 R45: C45 - C94 + C95 = 1
 R46: C46 - C95 + C96 = 1
 R47: C47 - C96 + C97 = 1
 R48: C48 - C97 + C98 = 1
 R49: C49 - C98 = 1
 R50: C0 + C99 - 2 C149 = 0
 R51: C1 + C100 - 2 C150 = 0
 R52: C2 + C101 - 2 C151 = 0
 R53: C3 + C102 - 2 C152 = 0
 R54: C4 + C103 - 2 C153 = 0
 R55: C5 + C104 - 2 C154 = 0
 R56: C6 + C105 - 2 C155 = 0
 R57: C7 + C106 - 2 C156 = 0
 R58: C8 + C107 - 2 C157 = 0
 R59: C9 + C108 - 2 C158 = 0
 R60: C10 + C109 - 2 C159 = 0
 R61: C11 + C110 - 2 C160 = 0
 R62: C12 + C111 - 2 C161 = 0
 R63: C13 + C112 - 2 C162 = 0
 R64: C14 + C113 - 2 C163 = 0
 R65: C15 + C114 - 2 C164 = 0
 R66: C16 + C115 - 2 C165 = 0
 R67: C17 + C116 - 2 C166 = 0
 R68: C18 + C117 - 2 C167 = 0
 R69: C19 + C118 - 2 C168 = 0
 R70: C20 + C119 - 2 C169 = 0
 R71: C21 + C120 - 2 C170 = 0
 R72: C22 + C121 - 2 C171 = 0
 R73: C23 + C122 - 2 C172 = 0
 R74: C24 + C123 - 2 C173 = 0
 R75: C25 + C124 - 2 C174 = 0
 R76: C26 + C125 - 2 C175 = 0
 R77: C27 + C126 - 2 C176 = 0
 R78: C28 + C127 - 2 C177 = 0
 R79: C29 + C128 - 2 C178 = 0
 R80: C30 + C129 - 2 C179 = 0
 R81: C31 + C130 - 2 C180 = 0
 R82: C32 + C131 - 2 C181 = 0
 R83: C33 + C132 - 2 C182 = 0
 R84: C34 + C133 - 2 C183 = 0
 R85: C35 + C134 - 2 C184 = 0
 R86: C36 + C135 - 2 C185 = 0
 R87: C37 + C136 - 2 C186 = 0
 R88: C38 + C137 - 2 C187 = 0
 R89: C39 + C138 - 2 C188 = 0
 R90: C40 + C139 - 2 C189 = 0
 R91: C41 + C140 - 2 C190 = 0
 R92: C42 + C141 - 2 C191 = 0
 R93: C43 + C142 - 2 C192 = 0
 R94: C44 + C143 - 2 C193 = 0
 R95: C45 + C144 - 2 C194 = 0
 R96: C46 + C145 - 2 C195 = 0
 R97: C47 + C146 - 2 C196 = 0
 R98: C48 + C147 - 2 C197 = 0
 R99: C49 + C148 - 2 C198 = 0
Bounds
 -2 <= C50 <= 2
 -2 <= C51 <= 2
 -2 <= C52 <= 2
 -2 <= C53 <= 2
 -2 <= C54 <= 2
 -2 <= C55 <= 2
 -2 <= C56 <= 2
 -2 <= C57 <= 2
 -2 <= C58 <= 2
 -2 <= C59 <= 2
 -2 <= C60 <= 2
 -2 <= C61 <= 2
 -2 <= C62 <= 2
 -2 <= C63 <= 2
 -2 <= C64 <= 2
 -2 <= C65 <= 2
 -2 <= C66 <= 2
 -2 <= C67 <= 2
 -2 <= C68 <= 2
 -2 <= C69 <= 2
 -2 <= C70 <= 2
 -2 <= C71 <= 2
 -2 <= C72 <= 2
 -2 <= C73 <= 2
 -2 <= C74 <= 2
 -2 <= C75 <= 2
 -2 <= C76 <= 2
 -2 <= C77 <= 2
 -2 <= C78 <= 2
 -2 <= C79 <= 2
 -2 <= C80 <= 2
 -2 <= C81 <= 2
 -2 <= C82 <= 2
 -2 <= C83 <= 2
 -2 <= C84 <= 2
 -2 <= C85 <= 2
 -2 <= C86 <= 2
 -2 <= C87 <= 2
 -2 <= C88 <= 2
 -2 <= C89 <= 2
 -2 <= C90 <= 2
 -2 <= C91 <= 2
 -2 <= C92 <= 2
 -2 <= C93 <= 2
 -2 <= C94 <= 2
 -2 <= C95 <= 2
 -2 <= C96 <= 2
 -2 <= C97 <= 2
 -2 <= C98 <= 2
Binaries
 C149 C150 C151 C152 C153 C154 C155 C156 C157 C158 C159 C160 C161 C162 C163
 C164 C165 C166 C167 C168 C169 C170 C171 C172 C173 C174 C175 C176 C177 C178
 C179 C180 C181 C182 C183 C184 C185 C186 C187 C188 C189 C190 C191 C192 C193
 C194 C195 C196 C197 C198
End
